(declare-datatypes ((Unit 0)) (((unit))))
(declare-datatypes ((Bits 0)) (((Bits (len (_ BitVec 8)) (contents (_ BitVec 64))))))
(declare-datatypes ((Zfloat_bits 0)) (((Zfloat_bits (Zfloat_bits_zexp Bits) (Zfloat_bits_zmantissa Bits) (Zfloat_bits_zsign (_ BitVec 1))))))
(declare-datatypes ((Zexception 0)) (((z__dummy_exnz3 (unz__dummy_exnz3 Unit)))))
(declare-const zz40/1 (_ BitVec 16))
(declare-const zz41/1 (_ BitVec 16))
(define-const zz42/2 (_ BitVec 16) zz40/1)
(define-const zz44/2 (_ BitVec 16) zz41/1)
(define-const zz416/3 (_ BitVec 16) (concat #b000000000000000 ((_ extract 15 15) zz42/2)))
(define-const zz416/4 (_ BitVec 16) (concat ((_ extract 15 2) zz416/3) (concat ((_ extract 14 14) zz42/2) ((_ extract 0 0) zz416/3))))
(define-const zz416/5 (_ BitVec 16) (concat ((_ extract 15 3) zz416/4) (concat ((_ extract 13 13) zz42/2) ((_ extract 1 0) zz416/4))))
(define-const zz416/6 (_ BitVec 16) (concat ((_ extract 15 4) zz416/5) (concat ((_ extract 12 12) zz42/2) ((_ extract 2 0) zz416/5))))
(define-const zz416/7 (_ BitVec 16) (concat ((_ extract 15 5) zz416/6) (concat ((_ extract 11 11) zz42/2) ((_ extract 3 0) zz416/6))))
(define-const zz416/8 (_ BitVec 16) (concat ((_ extract 15 6) zz416/7) (concat ((_ extract 10 10) zz42/2) ((_ extract 4 0) zz416/7))))
(define-const zz416/9 (_ BitVec 16) (concat ((_ extract 15 7) zz416/8) (concat ((_ extract 9 9) zz42/2) ((_ extract 5 0) zz416/8))))
(define-const zz416/10 (_ BitVec 16) (concat ((_ extract 15 8) zz416/9) (concat ((_ extract 8 8) zz42/2) ((_ extract 6 0) zz416/9))))
(define-const zz416/11 (_ BitVec 16) (concat ((_ extract 15 9) zz416/10) (concat ((_ extract 7 7) zz42/2) ((_ extract 7 0) zz416/10))))
(define-const zz416/12 (_ BitVec 16) (concat ((_ extract 15 10) zz416/11) (concat ((_ extract 6 6) zz42/2) ((_ extract 8 0) zz416/11))))
(define-const zz416/13 (_ BitVec 16) (concat ((_ extract 15 11) zz416/12) (concat ((_ extract 5 5) zz42/2) ((_ extract 9 0) zz416/12))))
(define-const zz416/14 (_ BitVec 16) (concat ((_ extract 15 12) zz416/13) (concat ((_ extract 4 4) zz42/2) ((_ extract 10 0) zz416/13))))
(define-const zz416/15 (_ BitVec 16) (concat ((_ extract 15 13) zz416/14) (concat ((_ extract 3 3) zz42/2) ((_ extract 11 0) zz416/14))))
(define-const zz416/16 (_ BitVec 16) (concat ((_ extract 15 14) zz416/15) (concat ((_ extract 2 2) zz42/2) ((_ extract 12 0) zz416/15))))
(define-const zz415/2 (_ BitVec 16) (concat ((_ extract 0 0) zz42/2) ((_ extract 14 0) (concat ((_ extract 15 15) zz416/16) (concat ((_ extract 1 1) zz42/2) ((_ extract 13 0) zz416/16))))))
(define-const zz4115/3 (_ BitVec 16) (concat #b000000000000000 ((_ extract 15 15) zz44/2)))
(define-const zz4115/4 (_ BitVec 16) (concat ((_ extract 15 2) zz4115/3) (concat ((_ extract 14 14) zz44/2) ((_ extract 0 0) zz4115/3))))
(define-const zz4115/5 (_ BitVec 16) (concat ((_ extract 15 3) zz4115/4) (concat ((_ extract 13 13) zz44/2) ((_ extract 1 0) zz4115/4))))
(define-const zz4115/6 (_ BitVec 16) (concat ((_ extract 15 4) zz4115/5) (concat ((_ extract 12 12) zz44/2) ((_ extract 2 0) zz4115/5))))
(define-const zz4115/7 (_ BitVec 16) (concat ((_ extract 15 5) zz4115/6) (concat ((_ extract 11 11) zz44/2) ((_ extract 3 0) zz4115/6))))
(define-const zz4115/8 (_ BitVec 16) (concat ((_ extract 15 6) zz4115/7) (concat ((_ extract 10 10) zz44/2) ((_ extract 4 0) zz4115/7))))
(define-const zz4115/9 (_ BitVec 16) (concat ((_ extract 15 7) zz4115/8) (concat ((_ extract 9 9) zz44/2) ((_ extract 5 0) zz4115/8))))
(define-const zz4115/10 (_ BitVec 16) (concat ((_ extract 15 8) zz4115/9) (concat ((_ extract 8 8) zz44/2) ((_ extract 6 0) zz4115/9))))
(define-const zz4115/11 (_ BitVec 16) (concat ((_ extract 15 9) zz4115/10) (concat ((_ extract 7 7) zz44/2) ((_ extract 7 0) zz4115/10))))
(define-const zz4115/12 (_ BitVec 16) (concat ((_ extract 15 10) zz4115/11) (concat ((_ extract 6 6) zz44/2) ((_ extract 8 0) zz4115/11))))
(define-const zz4115/13 (_ BitVec 16) (concat ((_ extract 15 11) zz4115/12) (concat ((_ extract 5 5) zz44/2) ((_ extract 9 0) zz4115/12))))
(define-const zz4115/14 (_ BitVec 16) (concat ((_ extract 15 12) zz4115/13) (concat ((_ extract 4 4) zz44/2) ((_ extract 10 0) zz4115/13))))
(define-const zz4115/15 (_ BitVec 16) (concat ((_ extract 15 13) zz4115/14) (concat ((_ extract 3 3) zz44/2) ((_ extract 11 0) zz4115/14))))
(define-const zz4115/16 (_ BitVec 16) (concat ((_ extract 15 14) zz4115/15) (concat ((_ extract 2 2) zz44/2) ((_ extract 12 0) zz4115/15))))
(define-const zz4114/2 (_ BitVec 16) (concat ((_ extract 0 0) zz44/2) ((_ extract 14 0) (concat ((_ extract 15 15) zz4115/16) (concat ((_ extract 1 1) zz44/2) ((_ extract 13 0) zz4115/16))))))
(define-const zz4213/4 (_ BitVec 32) (ite (= ((_ extract 0 0) zz415/2) #b0) #x00000000 (bvxor #x00000000 (bvshl (concat #x0000 zz4114/2) (concat #b0000000000000000000000000000000 #b0)))))
(define-const zz415/3 (_ BitVec 16) zz415/2)
(define-const zz4114/3 (_ BitVec 16) zz4114/2)
(define-const zz4213/6 (_ BitVec 32) (ite (= ((_ extract 1 1) zz415/3) #b0) zz4213/4 (bvxor zz4213/4 (bvshl (concat #x0000 zz4114/3) (concat #b000000000000000000000000000000 #b01)))))
(define-const zz415/4 (_ BitVec 16) zz415/3)
(define-const zz4114/4 (_ BitVec 16) zz4114/3)
(define-const zz4213/8 (_ BitVec 32) (ite (= ((_ extract 2 2) zz415/4) #b0) zz4213/6 (bvxor zz4213/6 (bvshl (concat #x0000 zz4114/4) (concat #b00000000000000000000000000000 #b010)))))
(define-const zz415/5 (_ BitVec 16) zz415/4)
(define-const zz4114/5 (_ BitVec 16) zz4114/4)
(define-const zz4213/10 (_ BitVec 32) (ite (= ((_ extract 3 3) zz415/5) #b0) zz4213/8 (bvxor zz4213/8 (bvshl (concat #x0000 zz4114/5) (concat #b00000000000000000000000000000 #b011)))))
(define-const zz415/6 (_ BitVec 16) zz415/5)
(define-const zz4114/6 (_ BitVec 16) zz4114/5)
(define-const zz4213/12 (_ BitVec 32) (ite (= ((_ extract 4 4) zz415/6) #b0) zz4213/10 (bvxor zz4213/10 (bvshl (concat #x0000 zz4114/6) (concat #x0000000 #x4)))))
(define-const zz415/7 (_ BitVec 16) zz415/6)
(define-const zz4114/7 (_ BitVec 16) zz4114/6)
(define-const zz4213/14 (_ BitVec 32) (ite (= ((_ extract 5 5) zz415/7) #b0) zz4213/12 (bvxor zz4213/12 (bvshl (concat #x0000 zz4114/7) (concat #x0000000 #x5)))))
(define-const zz415/8 (_ BitVec 16) zz415/7)
(define-const zz4114/8 (_ BitVec 16) zz4114/7)
(define-const zz4213/16 (_ BitVec 32) (ite (= ((_ extract 6 6) zz415/8) #b0) zz4213/14 (bvxor zz4213/14 (bvshl (concat #x0000 zz4114/8) (concat #x0000000 #x6)))))
(define-const zz415/9 (_ BitVec 16) zz415/8)
(define-const zz4114/9 (_ BitVec 16) zz4114/8)
(define-const zz4213/18 (_ BitVec 32) (ite (= ((_ extract 7 7) zz415/9) #b0) zz4213/16 (bvxor zz4213/16 (bvshl (concat #x0000 zz4114/9) (concat #x0000000 #x7)))))
(define-const zz415/10 (_ BitVec 16) zz415/9)
(define-const zz4114/10 (_ BitVec 16) zz4114/9)
(define-const zz4213/20 (_ BitVec 32) (ite (= ((_ extract 8 8) zz415/10) #b0) zz4213/18 (bvxor zz4213/18 (bvshl (concat #x0000 zz4114/10) (concat #b000000000000000000000000000 #b01000)))))
(define-const zz415/11 (_ BitVec 16) zz415/10)
(define-const zz4114/11 (_ BitVec 16) zz4114/10)
(define-const zz4213/22 (_ BitVec 32) (ite (= ((_ extract 9 9) zz415/11) #b0) zz4213/20 (bvxor zz4213/20 (bvshl (concat #x0000 zz4114/11) (concat #b000000000000000000000000000 #b01001)))))
(define-const zz415/12 (_ BitVec 16) zz415/11)
(define-const zz4114/12 (_ BitVec 16) zz4114/11)
(define-const zz4213/24 (_ BitVec 32) (ite (= ((_ extract 10 10) zz415/12) #b0) zz4213/22 (bvxor zz4213/22 (bvshl (concat #x0000 zz4114/12) (concat #b000000000000000000000000000 #b01010)))))
(define-const zz415/13 (_ BitVec 16) zz415/12)
(define-const zz4114/13 (_ BitVec 16) zz4114/12)
(define-const zz4213/26 (_ BitVec 32) (ite (= ((_ extract 11 11) zz415/13) #b0) zz4213/24 (bvxor zz4213/24 (bvshl (concat #x0000 zz4114/13) (concat #b000000000000000000000000000 #b01011)))))
(define-const zz415/14 (_ BitVec 16) zz415/13)
(define-const zz4114/14 (_ BitVec 16) zz4114/13)
(define-const zz4213/28 (_ BitVec 32) (ite (= ((_ extract 12 12) zz415/14) #b0) zz4213/26 (bvxor zz4213/26 (bvshl (concat #x0000 zz4114/14) (concat #b000000000000000000000000000 #b01100)))))
(define-const zz415/15 (_ BitVec 16) zz415/14)
(define-const zz4114/15 (_ BitVec 16) zz4114/14)
(define-const zz4213/30 (_ BitVec 32) (ite (= ((_ extract 13 13) zz415/15) #b0) zz4213/28 (bvxor zz4213/28 (bvshl (concat #x0000 zz4114/15) (concat #b000000000000000000000000000 #b01101)))))
(define-const zz415/16 (_ BitVec 16) zz415/15)
(define-const zz4114/16 (_ BitVec 16) zz4114/15)
(define-const zz4213/32 (_ BitVec 32) (ite (= ((_ extract 14 14) zz415/16) #b0) zz4213/30 (bvxor zz4213/30 (bvshl (concat #x0000 zz4114/16) (concat #b000000000000000000000000000 #b01110)))))
(define-const zz4344/2 (_ BitVec 16) ((_ extract 15 0) (ite (= ((_ extract 15 15) zz415/16) #b0) zz4213/32 (bvxor zz4213/32 (bvshl (concat #x0000 zz4114/16) (concat #b000000000000000000000000000 #b01111))))))
(define-const zz4347/3 (_ BitVec 16) (concat #b000000000000000 ((_ extract 15 15) zz4344/2)))
(define-const zz4347/4 (_ BitVec 16) (concat ((_ extract 15 2) zz4347/3) (concat ((_ extract 14 14) zz4344/2) ((_ extract 0 0) zz4347/3))))
(define-const zz4347/5 (_ BitVec 16) (concat ((_ extract 15 3) zz4347/4) (concat ((_ extract 13 13) zz4344/2) ((_ extract 1 0) zz4347/4))))
(define-const zz4347/6 (_ BitVec 16) (concat ((_ extract 15 4) zz4347/5) (concat ((_ extract 12 12) zz4344/2) ((_ extract 2 0) zz4347/5))))
(define-const zz4347/7 (_ BitVec 16) (concat ((_ extract 15 5) zz4347/6) (concat ((_ extract 11 11) zz4344/2) ((_ extract 3 0) zz4347/6))))
(define-const zz4347/8 (_ BitVec 16) (concat ((_ extract 15 6) zz4347/7) (concat ((_ extract 10 10) zz4344/2) ((_ extract 4 0) zz4347/7))))
(define-const zz4347/9 (_ BitVec 16) (concat ((_ extract 15 7) zz4347/8) (concat ((_ extract 9 9) zz4344/2) ((_ extract 5 0) zz4347/8))))
(define-const zz4347/10 (_ BitVec 16) (concat ((_ extract 15 8) zz4347/9) (concat ((_ extract 8 8) zz4344/2) ((_ extract 6 0) zz4347/9))))
(define-const zz4347/11 (_ BitVec 16) (concat ((_ extract 15 9) zz4347/10) (concat ((_ extract 7 7) zz4344/2) ((_ extract 7 0) zz4347/10))))
(define-const zz4347/12 (_ BitVec 16) (concat ((_ extract 15 10) zz4347/11) (concat ((_ extract 6 6) zz4344/2) ((_ extract 8 0) zz4347/11))))
(define-const zz4347/13 (_ BitVec 16) (concat ((_ extract 15 11) zz4347/12) (concat ((_ extract 5 5) zz4344/2) ((_ extract 9 0) zz4347/12))))
(define-const zz4347/14 (_ BitVec 16) (concat ((_ extract 15 12) zz4347/13) (concat ((_ extract 4 4) zz4344/2) ((_ extract 10 0) zz4347/13))))
(define-const zz4347/15 (_ BitVec 16) (concat ((_ extract 15 13) zz4347/14) (concat ((_ extract 3 3) zz4344/2) ((_ extract 11 0) zz4347/14))))
(define-const zz4347/16 (_ BitVec 16) (concat ((_ extract 15 14) zz4347/15) (concat ((_ extract 2 2) zz4344/2) ((_ extract 12 0) zz4347/15))))
(define-const zz4449/2 Bool (= ((_ extract 0 0) zz42/2) #b1))
(define-const zz4446/4 (_ BitVec 16) (ite (not zz4449/2) #x0000 (bvxor #x0000 (bvlshr zz44/2 #x000F))))
(define-const zz4457/2 Bool (= ((_ extract 1 1) zz42/2) #b1))
(define-const zz4446/6 (_ BitVec 16) (ite (not zz4457/2) zz4446/4 (bvxor zz4446/4 (bvlshr zz44/2 #x000E))))
(define-const zz4465/2 Bool (= ((_ extract 2 2) zz42/2) #b1))
(define-const zz4446/8 (_ BitVec 16) (ite (not zz4465/2) zz4446/6 (bvxor zz4446/6 (bvlshr zz44/2 #x000D))))
(define-const zz4473/2 Bool (= ((_ extract 3 3) zz42/2) #b1))
(define-const zz4446/10 (_ BitVec 16) (ite (not zz4473/2) zz4446/8 (bvxor zz4446/8 (bvlshr zz44/2 #x000C))))
(define-const zz4481/2 Bool (= ((_ extract 4 4) zz42/2) #b1))
(define-const zz4446/12 (_ BitVec 16) (ite (not zz4481/2) zz4446/10 (bvxor zz4446/10 (bvlshr zz44/2 #x000B))))
(define-const zz4489/2 Bool (= ((_ extract 5 5) zz42/2) #b1))
(define-const zz4446/14 (_ BitVec 16) (ite (not zz4489/2) zz4446/12 (bvxor zz4446/12 (bvlshr zz44/2 #x000A))))
(define-const zz4497/2 Bool (= ((_ extract 6 6) zz42/2) #b1))
(define-const zz4446/16 (_ BitVec 16) (ite (not zz4497/2) zz4446/14 (bvxor zz4446/14 (bvlshr zz44/2 #x0009))))
(define-const zz4505/2 Bool (= ((_ extract 7 7) zz42/2) #b1))
(define-const zz4446/18 (_ BitVec 16) (ite (not zz4505/2) zz4446/16 (bvxor zz4446/16 (bvlshr zz44/2 #x0008))))
(define-const zz4513/2 Bool (= ((_ extract 8 8) zz42/2) #b1))
(define-const zz4446/20 (_ BitVec 16) (ite (not zz4513/2) zz4446/18 (bvxor zz4446/18 (bvlshr zz44/2 #x0007))))
(define-const zz4521/2 Bool (= ((_ extract 9 9) zz42/2) #b1))
(define-const zz4446/22 (_ BitVec 16) (ite (not zz4521/2) zz4446/20 (bvxor zz4446/20 (bvlshr zz44/2 #x0006))))
(define-const zz4529/2 Bool (= ((_ extract 10 10) zz42/2) #b1))
(define-const zz4446/24 (_ BitVec 16) (ite (not zz4529/2) zz4446/22 (bvxor zz4446/22 (bvlshr zz44/2 #x0005))))
(define-const zz4537/2 Bool (= ((_ extract 11 11) zz42/2) #b1))
(define-const zz4446/26 (_ BitVec 16) (ite (not zz4537/2) zz4446/24 (bvxor zz4446/24 (bvlshr zz44/2 #x0004))))
(define-const zz4545/2 Bool (= ((_ extract 12 12) zz42/2) #b1))
(define-const zz4446/28 (_ BitVec 16) (ite (not zz4545/2) zz4446/26 (bvxor zz4446/26 (bvlshr zz44/2 #x0003))))
(define-const zz4553/2 Bool (= ((_ extract 13 13) zz42/2) #b1))
(define-const zz4446/30 (_ BitVec 16) (ite (not zz4553/2) zz4446/28 (bvxor zz4446/28 (bvlshr zz44/2 #x0002))))
(define-const zz4561/2 Bool (= ((_ extract 14 14) zz42/2) #b1))
(define-const zz4446/32 (_ BitVec 16) (ite (not zz4561/2) zz4446/30 (bvxor zz4446/30 (bvlshr zz44/2 #x0001))))
(define-const zz4569/2 Bool (= ((_ extract 15 15) zz42/2) #b1))
(assert (not (= (concat ((_ extract 0 0) zz4344/2) ((_ extract 14 0) (concat ((_ extract 15 15) zz4347/16) (concat ((_ extract 1 1) zz4344/2) ((_ extract 13 0) zz4347/16))))) (ite (not zz4569/2) zz4446/32 (bvxor zz4446/32 zz44/2)))))
(check-sat)
